# Cu 

#*******INITILIZATION******
units		metal
dimension	3
boundary 	p p p 
atom_style	atomic
atom_modify map array

#********CREATION OF ATOMS********
lattice		sc 2.64
region		box block 0 1 0 1 0 1 units lattice
create_box	1 box

lattice		sc 2.64 orient x 1 0 0 orient y 0 1 0 orient z 0 0 1
create_atoms	1 box
replicate 	1 1 1
#mass		1 1.0
#velocity	all create 5.0 87287 loop geom

#***DEFINING FORCE INTERATOMIC POTENTIAL**********
pair_style	eam/alloy
pair_coeff	* * Cu01.eam.alloy Cu
pair_modify	shift yes
neighbor	1 bin
#neigh_modify 	delay 10 check yes 
neigh_modify	delay 0 every 1 check yes

#****COMPUTE******
compute eng all pe/atom
compute eatoms all reduce sum c_eng 

# ---------- Run Minimization --------------------- 
reset_timestep 0 
timestep 0.007
#fix		1 all nve
fix 1 all box/relax iso 0.0 vmax 0.001

#set thermo output
thermo 5 
thermo_style custom step lx ly lz pe press pxx pyy pzz c_eatoms 


min_style cg 
minimize	1.0e-6 0.001 1000 10000

variable noatoms equal "count(all)" 
variable tleng equal "c_eatoms"
variable length equal "lx"
variable engcoh equal "v_tleng/v_noatoms"

print "Total_Energy (eV) = ${tleng};"
print "Number_of_Atoms = ${noatoms};"
print "Lattice_Constant (Angstoms) = ${length};"
print "Energy (eV) = ${engcoh};"

print "All done!" 


#thermo		50

